p cnf 93 258
c inputs: 1 2 3 4 5 6 7
c variables for gates: 8 ... 86
c outputs: 87 88 89 90 91 92 93
c random input: 1 2 3 4 5 6 -7
8 -1 -4 0
-8 1 0
-8 4 0
9 -1 -5 0
-9 1 0
-9 5 0
10 -1 -6 0
-10 1 0
-10 6 0
11 -1 -7 0
-11 1 0
-11 7 0
12 -2 -4 0
-12 2 0
-12 4 0
13 -2 -5 0
-13 2 0
-13 5 0
14 -2 -6 0
-14 2 0
-14 6 0
15 -2 -7 0
-15 2 0
-15 7 0
16 -3 -4 0
-16 3 0
-16 4 0
17 -3 -5 0
-17 3 0
-17 5 0
18 -3 -6 0
-18 3 0
-18 6 0
19 -3 -7 0
-19 3 0
-19 7 0
20 -12 -9 0
-20 12 0
-20 9 0
21 -9 12 0
-21 9 0
-21 -12 0
22 -12 9 0
-22 12 0
-22 -9 0
23 21 22 0
-23 -21 0
-23 -22 0
24 -13 -10 0
-24 13 0
-24 10 0
25 -16 -10 0
-25 16 0
-25 10 0
26 -13 -16 0
-26 13 0
-26 16 0
27 26 25 0
-27 -26 0
-27 -25 0
28 24 -27 0
-28 -24 0
-28 27 0
29 -13 16 0
-29 13 0
-29 -16 0
30 -16 13 0
-30 16 0
-30 -13 0
31 30 29 0
-31 -30 0
-31 -29 0
32 -10 -31 0
-32 10 0
-32 31 0
33 10 31 0
-33 -10 0
-33 -31 0
34 32 33 0
-34 -32 0
-34 -33 0
35 -14 -11 0
-35 14 0
-35 11 0
36 -17 -11 0
-36 17 0
-36 11 0
37 -14 -17 0
-37 14 0
-37 17 0
38 37 36 0
-38 -37 0
-38 -36 0
39 35 -38 0
-39 -35 0
-39 38 0
40 -14 17 0
-40 14 0
-40 -17 0
41 -17 14 0
-41 17 0
-41 -14 0
42 41 40 0
-42 -41 0
-42 -40 0
43 -11 -42 0
-43 11 0
-43 42 0
44 11 42 0
-44 -11 0
-44 -42 0
45 43 44 0
-45 -43 0
-45 -44 0
46 -15 -18 0
-46 15 0
-46 18 0
47 -15 18 0
-47 15 0
-47 -18 0
48 -18 15 0
-48 18 0
-48 -15 0
49 48 47 0
-49 -48 0
-49 -47 0
50 20 34 0
-50 -20 0
-50 -34 0
51 -20 -34 0
-51 20 0
-51 34 0
52 51 50 0
-52 -51 0
-52 -50 0
53 -20 34 0
-53 20 0
-53 -34 0
54 -28 45 0
-54 28 0
-54 -45 0
55 28 -45 0
-55 -28 0
-55 45 0
56 55 54 0
-56 -55 0
-56 -54 0
57 -53 -56 0
-57 53 0
-57 56 0
58 53 56 0
-58 -53 0
-58 -56 0
59 57 58 0
-59 -57 0
-59 -58 0
60 45 -53 0
-60 -45 0
-60 53 0
61 28 -53 0
-61 -28 0
-61 53 0
62 28 45 0
-62 -28 0
-62 -45 0
63 61 62 0
-63 -61 0
-63 -62 0
64 -63 60 0
-64 63 0
-64 -60 0
65 49 -39 0
-65 -49 0
-65 39 0
66 -49 39 0
-66 49 0
-66 -39 0
67 66 65 0
-67 -66 0
-67 -65 0
68 -67 64 0
-68 67 0
-68 -64 0
69 67 -64 0
-69 -67 0
-69 64 0
70 69 68 0
-70 -69 0
-70 -68 0
71 49 64 0
-71 -49 0
-71 -64 0
72 39 64 0
-72 -39 0
-72 -64 0
73 49 39 0
-73 -49 0
-73 -39 0
74 73 72 0
-74 -73 0
-74 -72 0
75 71 -74 0
-75 -71 0
-75 74 0
76 -19 46 0
-76 19 0
-76 -46 0
77 19 -46 0
-77 -19 0
-77 46 0
78 77 76 0
-78 -77 0
-78 -76 0
79 -78 75 0
-79 78 0
-79 -75 0
80 78 -75 0
-80 -78 0
-80 75 0
81 80 79 0
-81 -80 0
-81 -79 0
82 -19 75 0
-82 19 0
-82 -75 0
83 -46 75 0
-83 46 0
-83 -75 0
84 -19 -46 0
-84 19 0
-84 46 0
85 84 83 0
-85 -84 0
-85 -83 0
86 82 -85 0
-86 -82 0
-86 85 0
-87 8 0
87 -8 0
-88 -23 0
88 23 0
-89 -52 0
89 52 0
-90 -59 0
90 59 0
-91 -70 0
91 70 0
-92 -81 0
92 81 0
-93 -86 0
93 86 0
87 0
-88 0
-89 0
-90 0
91 0
92 0
-93 0
